(set-info :smt-lib-version 2.6)
(set-logic QF_NIA)
(set-info :source |
Generated by: Cristina Borralleras, Daniel Larraz, Albert Oliveras, Enric Rodriguez-Carbonell, Albert Rubio
Generated on: 2017-04-27
Generator: VeryMax
Application: Termination proving
Target solver: barcelogic
|)
(set-info :license "https://creativecommons.org/licenses/by/4.0/")
(set-info :category "industrial")
(set-info :status sat)
(declare-fun Nl2main_i1 () Int)
(declare-fun Nl2main_range1 () Int)
(declare-fun Nl2main_i2 () Int)
(declare-fun Nl2main_range2 () Int)
(declare-fun Nl2main_i3 () Int)
(declare-fun Nl2main_range3 () Int)
(declare-fun lam0n0 () Int)
(declare-fun lam0n1 () Int)
(declare-fun lam0n2 () Int)
(declare-fun lam0n3 () Int)
(declare-fun lam0n4 () Int)
(declare-fun lam0n5 () Int)
(declare-fun lam0n6 () Int)
(declare-fun Nl2CT1 () Int)
(declare-fun Nl2CT2 () Int)
(declare-fun Nl2CT3 () Int)
(declare-fun lam1n0 () Int)
(declare-fun lam1n1 () Int)
(declare-fun lam1n2 () Int)
(declare-fun lam1n3 () Int)
(declare-fun lam1n4 () Int)
(declare-fun lam1n5 () Int)
(declare-fun lam1n6 () Int)
(declare-fun lam2n0 () Int)
(declare-fun lam2n1 () Int)
(declare-fun lam2n2 () Int)
(declare-fun lam2n3 () Int)
(declare-fun lam2n4 () Int)
(declare-fun lam2n5 () Int)
(declare-fun lam2n6 () Int)
(declare-fun lam3n0 () Int)
(declare-fun lam3n1 () Int)
(declare-fun lam3n2 () Int)
(declare-fun lam3n3 () Int)
(declare-fun lam3n4 () Int)
(declare-fun lam3n5 () Int)
(declare-fun lam3n6 () Int)
(declare-fun lam4n0 () Int)
(declare-fun lam4n1 () Int)
(declare-fun lam4n2 () Int)
(declare-fun lam4n3 () Int)
(declare-fun lam4n4 () Int)
(declare-fun lam4n5 () Int)
(declare-fun lam4n6 () Int)
(declare-fun lam5n0 () Int)
(declare-fun lam5n1 () Int)
(declare-fun lam5n2 () Int)
(declare-fun lam5n3 () Int)
(declare-fun lam5n4 () Int)
(declare-fun lam5n5 () Int)
(declare-fun lam5n6 () Int)
(declare-fun lam6n0 () Int)
(declare-fun lam6n1 () Int)
(declare-fun lam6n2 () Int)
(declare-fun lam6n3 () Int)
(declare-fun lam6n4 () Int)
(declare-fun lam6n5 () Int)
(declare-fun lam6n6 () Int)
(declare-fun lam7n0 () Int)
(declare-fun lam7n1 () Int)
(declare-fun lam7n2 () Int)
(declare-fun lam7n3 () Int)
(declare-fun lam7n4 () Int)
(declare-fun lam7n5 () Int)
(declare-fun lam7n6 () Int)
(declare-fun lam8n1 () Int)
(declare-fun lam8n0 () Int)
(declare-fun lam9n1 () Int)
(declare-fun lam9n0 () Int)
(declare-fun lam10n1 () Int)
(declare-fun lam10n0 () Int)
(declare-fun main_i () Int)
(declare-fun undef2 () Int)
(declare-fun main_range () Int)
(declare-fun lam11n0 () Int)
(declare-fun lam11n1 () Int)
(declare-fun lam11n2 () Int)
(declare-fun lam11n3 () Int)
(declare-fun lam11n4 () Int)
(declare-fun lam11n5 () Int)
(declare-fun lam12n0 () Int)
(declare-fun lam12n1 () Int)
(declare-fun lam12n2 () Int)
(declare-fun lam12n3 () Int)
(declare-fun lam12n4 () Int)
(declare-fun lam12n5 () Int)
(declare-fun lam13n0 () Int)
(declare-fun lam13n1 () Int)
(declare-fun lam13n2 () Int)
(declare-fun lam13n3 () Int)
(declare-fun lam13n4 () Int)
(declare-fun lam13n5 () Int)
(declare-fun FV_main_i_2 () Int)
(declare-fun FV_main_range_2 () Int)
(assert ( and ( <= ( - 1 ) Nl2main_i1 ) ( <= Nl2main_i1 1 ) ( <= ( - 1 ) Nl2main_range1 ) ( <= Nl2main_range1 1 ) ( <= ( - 1 ) Nl2main_i2 ) ( <= Nl2main_i2 1 ) ( <= ( - 1 ) Nl2main_range2 ) ( <= Nl2main_range2 1 ) ( <= ( - 1 ) Nl2main_i3 ) ( <= Nl2main_i3 1 ) ( <= ( - 1 ) Nl2main_range3 ) ( <= Nl2main_range3 1 ) ))
(assert ( or ( and ( >= lam0n0 0 ) ( >= lam0n1 0 ) ( >= lam0n2 0 ) ( >= lam0n3 0 ) ( >= lam0n4 0 ) ( >= lam0n5 0 ) ( >= lam0n6 0 ) ( > ( + ( * 5 lam0n1 ) ( * 4 lam0n2 ) ( * ( - 4 ) lam0n3 ) ( * Nl2CT1 lam0n4 ) ( * Nl2CT2 lam0n5 ) ( * Nl2CT3 lam0n6 ) ( - 1 ) ) 0 ) ( = ( + ( * ( - 1 ) lam0n0 ) ( * 1 lam0n1 ) ( * 1 lam0n3 ) ( * Nl2main_i1 lam0n4 ) ( * Nl2main_i2 lam0n5 ) ( * Nl2main_i3 lam0n6 ) ) 0 ) ( = ( + ( * ( - 1 ) lam0n0 ) ( * ( - 1 ) lam0n1 ) ( * ( - 1 ) lam0n2 ) ( * 1 lam0n3 ) ( * Nl2main_range1 lam0n4 ) ( * Nl2main_range2 lam0n5 ) ( * Nl2main_range3 lam0n6 ) ) 0 ) ) ( and ( >= lam1n0 0 ) ( >= lam1n1 0 ) ( >= lam1n2 0 ) ( >= lam1n3 0 ) ( >= lam1n4 0 ) ( >= lam1n5 0 ) ( >= lam1n6 0 ) ( > ( + ( * 5 lam1n1 ) ( * 4 lam1n2 ) ( * ( - 4 ) lam1n3 ) ( * Nl2CT1 lam1n4 ) ( * Nl2CT2 lam1n5 ) ( * Nl2CT3 lam1n6 ) ( - 1 ( + Nl2CT1 ( * Nl2main_i1 0 ) ) ) ) 0 ) ( = ( + ( * ( - 1 ) lam1n0 ) ( * 1 lam1n1 ) ( * 1 lam1n3 ) ( * Nl2main_i1 lam1n4 ) ( * Nl2main_i2 lam1n5 ) ( * Nl2main_i3 lam1n6 ) ( - ( + 0 ( * Nl2main_i1 ( - 1 ) ) ) ) ) 0 ) ( = ( + ( * ( - 1 ) lam1n0 ) ( * ( - 1 ) lam1n1 ) ( * ( - 1 ) lam1n2 ) ( * 1 lam1n3 ) ( * Nl2main_range1 lam1n4 ) ( * Nl2main_range2 lam1n5 ) ( * Nl2main_range3 lam1n6 ) ( - ( + 0 Nl2main_range1 ) ) ) 0 ) ) ))
(assert ( or ( and ( >= lam0n0 0 ) ( >= lam0n1 0 ) ( >= lam0n2 0 ) ( >= lam0n3 0 ) ( >= lam0n4 0 ) ( >= lam0n5 0 ) ( >= lam0n6 0 ) ( > ( + ( * 5 lam0n1 ) ( * 4 lam0n2 ) ( * ( - 4 ) lam0n3 ) ( * Nl2CT1 lam0n4 ) ( * Nl2CT2 lam0n5 ) ( * Nl2CT3 lam0n6 ) ( - 1 ) ) 0 ) ( = ( + ( * ( - 1 ) lam0n0 ) ( * 1 lam0n1 ) ( * 1 lam0n3 ) ( * Nl2main_i1 lam0n4 ) ( * Nl2main_i2 lam0n5 ) ( * Nl2main_i3 lam0n6 ) ) 0 ) ( = ( + ( * ( - 1 ) lam0n0 ) ( * ( - 1 ) lam0n1 ) ( * ( - 1 ) lam0n2 ) ( * 1 lam0n3 ) ( * Nl2main_range1 lam0n4 ) ( * Nl2main_range2 lam0n5 ) ( * Nl2main_range3 lam0n6 ) ) 0 ) ) ( and ( >= lam2n0 0 ) ( >= lam2n1 0 ) ( >= lam2n2 0 ) ( >= lam2n3 0 ) ( >= lam2n4 0 ) ( >= lam2n5 0 ) ( >= lam2n6 0 ) ( > ( + ( * 5 lam2n1 ) ( * 4 lam2n2 ) ( * ( - 4 ) lam2n3 ) ( * Nl2CT1 lam2n4 ) ( * Nl2CT2 lam2n5 ) ( * Nl2CT3 lam2n6 ) ( - 1 ( + Nl2CT2 ( * Nl2main_i2 0 ) ) ) ) 0 ) ( = ( + ( * ( - 1 ) lam2n0 ) ( * 1 lam2n1 ) ( * 1 lam2n3 ) ( * Nl2main_i1 lam2n4 ) ( * Nl2main_i2 lam2n5 ) ( * Nl2main_i3 lam2n6 ) ( - ( + 0 ( * Nl2main_i2 ( - 1 ) ) ) ) ) 0 ) ( = ( + ( * ( - 1 ) lam2n0 ) ( * ( - 1 ) lam2n1 ) ( * ( - 1 ) lam2n2 ) ( * 1 lam2n3 ) ( * Nl2main_range1 lam2n4 ) ( * Nl2main_range2 lam2n5 ) ( * Nl2main_range3 lam2n6 ) ( - ( + 0 Nl2main_range2 ) ) ) 0 ) ) ))
(assert ( or ( and ( >= lam0n0 0 ) ( >= lam0n1 0 ) ( >= lam0n2 0 ) ( >= lam0n3 0 ) ( >= lam0n4 0 ) ( >= lam0n5 0 ) ( >= lam0n6 0 ) ( > ( + ( * 5 lam0n1 ) ( * 4 lam0n2 ) ( * ( - 4 ) lam0n3 ) ( * Nl2CT1 lam0n4 ) ( * Nl2CT2 lam0n5 ) ( * Nl2CT3 lam0n6 ) ( - 1 ) ) 0 ) ( = ( + ( * ( - 1 ) lam0n0 ) ( * 1 lam0n1 ) ( * 1 lam0n3 ) ( * Nl2main_i1 lam0n4 ) ( * Nl2main_i2 lam0n5 ) ( * Nl2main_i3 lam0n6 ) ) 0 ) ( = ( + ( * ( - 1 ) lam0n0 ) ( * ( - 1 ) lam0n1 ) ( * ( - 1 ) lam0n2 ) ( * 1 lam0n3 ) ( * Nl2main_range1 lam0n4 ) ( * Nl2main_range2 lam0n5 ) ( * Nl2main_range3 lam0n6 ) ) 0 ) ) ( and ( >= lam3n0 0 ) ( >= lam3n1 0 ) ( >= lam3n2 0 ) ( >= lam3n3 0 ) ( >= lam3n4 0 ) ( >= lam3n5 0 ) ( >= lam3n6 0 ) ( > ( + ( * 5 lam3n1 ) ( * 4 lam3n2 ) ( * ( - 4 ) lam3n3 ) ( * Nl2CT1 lam3n4 ) ( * Nl2CT2 lam3n5 ) ( * Nl2CT3 lam3n6 ) ( - 1 ( + Nl2CT3 ( * Nl2main_i3 0 ) ) ) ) 0 ) ( = ( + ( * ( - 1 ) lam3n0 ) ( * 1 lam3n1 ) ( * 1 lam3n3 ) ( * Nl2main_i1 lam3n4 ) ( * Nl2main_i2 lam3n5 ) ( * Nl2main_i3 lam3n6 ) ( - ( + 0 ( * Nl2main_i3 ( - 1 ) ) ) ) ) 0 ) ( = ( + ( * ( - 1 ) lam3n0 ) ( * ( - 1 ) lam3n1 ) ( * ( - 1 ) lam3n2 ) ( * 1 lam3n3 ) ( * Nl2main_range1 lam3n4 ) ( * Nl2main_range2 lam3n5 ) ( * Nl2main_range3 lam3n6 ) ( - ( + 0 Nl2main_range3 ) ) ) 0 ) ) ))
(assert ( or ( and ( >= lam4n0 0 ) ( >= lam4n1 0 ) ( >= lam4n2 0 ) ( >= lam4n3 0 ) ( >= lam4n4 0 ) ( >= lam4n5 0 ) ( >= lam4n6 0 ) ( > ( + ( * 4 lam4n2 ) ( * ( - 4 ) lam4n3 ) ( * Nl2CT1 lam4n4 ) ( * Nl2CT2 lam4n5 ) ( * Nl2CT3 lam4n6 ) ( - 1 ) ) 0 ) ( = ( + ( * 1 lam4n0 ) ( * ( - 1 ) lam4n1 ) ( * ( - 1 ) lam4n3 ) ( * Nl2main_i1 lam4n4 ) ( * Nl2main_i2 lam4n5 ) ( * Nl2main_i3 lam4n6 ) ) 0 ) ( = ( + ( * ( - 1 ) lam4n0 ) ( * ( - 1 ) lam4n1 ) ( * ( - 1 ) lam4n2 ) ( * 1 lam4n3 ) ( * Nl2main_range1 lam4n4 ) ( * Nl2main_range2 lam4n5 ) ( * Nl2main_range3 lam4n6 ) ) 0 ) ) ( and ( >= lam5n0 0 ) ( >= lam5n1 0 ) ( >= lam5n2 0 ) ( >= lam5n3 0 ) ( >= lam5n4 0 ) ( >= lam5n5 0 ) ( >= lam5n6 0 ) ( > ( + ( * 4 lam5n2 ) ( * ( - 4 ) lam5n3 ) ( * Nl2CT1 lam5n4 ) ( * Nl2CT2 lam5n5 ) ( * Nl2CT3 lam5n6 ) ( - 1 ( + Nl2CT1 ( * Nl2main_i1 0 ) ) ) ) 0 ) ( = ( + ( * 1 lam5n0 ) ( * ( - 1 ) lam5n1 ) ( * ( - 1 ) lam5n3 ) ( * Nl2main_i1 lam5n4 ) ( * Nl2main_i2 lam5n5 ) ( * Nl2main_i3 lam5n6 ) ( - ( + 0 ( * Nl2main_i1 ( - 1 ) ) ) ) ) 0 ) ( = ( + ( * ( - 1 ) lam5n0 ) ( * ( - 1 ) lam5n1 ) ( * ( - 1 ) lam5n2 ) ( * 1 lam5n3 ) ( * Nl2main_range1 lam5n4 ) ( * Nl2main_range2 lam5n5 ) ( * Nl2main_range3 lam5n6 ) ( - ( + 0 Nl2main_range1 ) ) ) 0 ) ) ))
(assert ( or ( and ( >= lam4n0 0 ) ( >= lam4n1 0 ) ( >= lam4n2 0 ) ( >= lam4n3 0 ) ( >= lam4n4 0 ) ( >= lam4n5 0 ) ( >= lam4n6 0 ) ( > ( + ( * 4 lam4n2 ) ( * ( - 4 ) lam4n3 ) ( * Nl2CT1 lam4n4 ) ( * Nl2CT2 lam4n5 ) ( * Nl2CT3 lam4n6 ) ( - 1 ) ) 0 ) ( = ( + ( * 1 lam4n0 ) ( * ( - 1 ) lam4n1 ) ( * ( - 1 ) lam4n3 ) ( * Nl2main_i1 lam4n4 ) ( * Nl2main_i2 lam4n5 ) ( * Nl2main_i3 lam4n6 ) ) 0 ) ( = ( + ( * ( - 1 ) lam4n0 ) ( * ( - 1 ) lam4n1 ) ( * ( - 1 ) lam4n2 ) ( * 1 lam4n3 ) ( * Nl2main_range1 lam4n4 ) ( * Nl2main_range2 lam4n5 ) ( * Nl2main_range3 lam4n6 ) ) 0 ) ) ( and ( >= lam6n0 0 ) ( >= lam6n1 0 ) ( >= lam6n2 0 ) ( >= lam6n3 0 ) ( >= lam6n4 0 ) ( >= lam6n5 0 ) ( >= lam6n6 0 ) ( > ( + ( * 4 lam6n2 ) ( * ( - 4 ) lam6n3 ) ( * Nl2CT1 lam6n4 ) ( * Nl2CT2 lam6n5 ) ( * Nl2CT3 lam6n6 ) ( - 1 ( + Nl2CT2 ( * Nl2main_i2 0 ) ) ) ) 0 ) ( = ( + ( * 1 lam6n0 ) ( * ( - 1 ) lam6n1 ) ( * ( - 1 ) lam6n3 ) ( * Nl2main_i1 lam6n4 ) ( * Nl2main_i2 lam6n5 ) ( * Nl2main_i3 lam6n6 ) ( - ( + 0 ( * Nl2main_i2 ( - 1 ) ) ) ) ) 0 ) ( = ( + ( * ( - 1 ) lam6n0 ) ( * ( - 1 ) lam6n1 ) ( * ( - 1 ) lam6n2 ) ( * 1 lam6n3 ) ( * Nl2main_range1 lam6n4 ) ( * Nl2main_range2 lam6n5 ) ( * Nl2main_range3 lam6n6 ) ( - ( + 0 Nl2main_range2 ) ) ) 0 ) ) ))
(assert ( or ( and ( >= lam4n0 0 ) ( >= lam4n1 0 ) ( >= lam4n2 0 ) ( >= lam4n3 0 ) ( >= lam4n4 0 ) ( >= lam4n5 0 ) ( >= lam4n6 0 ) ( > ( + ( * 4 lam4n2 ) ( * ( - 4 ) lam4n3 ) ( * Nl2CT1 lam4n4 ) ( * Nl2CT2 lam4n5 ) ( * Nl2CT3 lam4n6 ) ( - 1 ) ) 0 ) ( = ( + ( * 1 lam4n0 ) ( * ( - 1 ) lam4n1 ) ( * ( - 1 ) lam4n3 ) ( * Nl2main_i1 lam4n4 ) ( * Nl2main_i2 lam4n5 ) ( * Nl2main_i3 lam4n6 ) ) 0 ) ( = ( + ( * ( - 1 ) lam4n0 ) ( * ( - 1 ) lam4n1 ) ( * ( - 1 ) lam4n2 ) ( * 1 lam4n3 ) ( * Nl2main_range1 lam4n4 ) ( * Nl2main_range2 lam4n5 ) ( * Nl2main_range3 lam4n6 ) ) 0 ) ) ( and ( >= lam7n0 0 ) ( >= lam7n1 0 ) ( >= lam7n2 0 ) ( >= lam7n3 0 ) ( >= lam7n4 0 ) ( >= lam7n5 0 ) ( >= lam7n6 0 ) ( > ( + ( * 4 lam7n2 ) ( * ( - 4 ) lam7n3 ) ( * Nl2CT1 lam7n4 ) ( * Nl2CT2 lam7n5 ) ( * Nl2CT3 lam7n6 ) ( - 1 ( + Nl2CT3 ( * Nl2main_i3 0 ) ) ) ) 0 ) ( = ( + ( * 1 lam7n0 ) ( * ( - 1 ) lam7n1 ) ( * ( - 1 ) lam7n3 ) ( * Nl2main_i1 lam7n4 ) ( * Nl2main_i2 lam7n5 ) ( * Nl2main_i3 lam7n6 ) ( - ( + 0 ( * Nl2main_i3 ( - 1 ) ) ) ) ) 0 ) ( = ( + ( * ( - 1 ) lam7n0 ) ( * ( - 1 ) lam7n1 ) ( * ( - 1 ) lam7n2 ) ( * 1 lam7n3 ) ( * Nl2main_range1 lam7n4 ) ( * Nl2main_range2 lam7n5 ) ( * Nl2main_range3 lam7n6 ) ( - ( + 0 Nl2main_range3 ) ) ) 0 ) ) ))
(assert ( and ( = ( + main_i ( * ( - 1 ) undef2 ) ) 0 ) ( = ( + ( - 20 ) main_range ) 0 ) ( <= ( + Nl2CT1 ( * ( + 0 Nl2main_i1 ) main_i ) ( * ( + 0 Nl2main_range1 ) main_range ) ) 0 ) ( <= ( + Nl2CT2 ( * ( + 0 Nl2main_i2 ) main_i ) ( * ( + 0 Nl2main_range2 ) main_range ) ) 0 ) ( <= ( + Nl2CT3 ( * ( + 0 Nl2main_i3 ) main_i ) ( * ( + 0 Nl2main_range3 ) main_range ) ) 0 ) ( <= ( + ( * ( - 1 ) main_i ) ( * ( - 1 ) main_range ) ) 0 ) ))
(assert ( or ( and ( >= lam11n0 0 ) ( >= lam11n1 0 ) ( >= lam11n2 0 ) ( >= lam11n3 0 ) ( >= lam11n4 0 ) ( >= lam11n5 0 ) ( > ( + ( * 5 lam11n0 ) ( * 1 lam11n1 ) ( * 4 lam11n2 ) ( * Nl2CT1 lam11n3 ) ( * Nl2CT2 lam11n4 ) ( * Nl2CT3 lam11n5 ) ( - 1 ) ) 0 ) ( = ( + ( * ( - 1 ) lam11n0 ) ( * ( - 1 ) lam11n1 ) ( * Nl2main_i1 lam11n3 ) ( * Nl2main_i2 lam11n4 ) ( * Nl2main_i3 lam11n5 ) ) 0 ) ( = ( + ( * ( - 1 ) lam11n0 ) ( * 1 lam11n1 ) ( * ( - 1 ) lam11n2 ) ( * Nl2main_range1 lam11n3 ) ( * Nl2main_range2 lam11n4 ) ( * Nl2main_range3 lam11n5 ) ) 0 ) ) ( and ( >= lam12n0 0 ) ( >= lam12n1 0 ) ( >= lam12n2 0 ) ( >= lam12n3 0 ) ( >= lam12n4 0 ) ( >= lam12n5 0 ) ( > ( + ( * 1 lam12n1 ) ( * ( - 3 ) lam12n2 ) ( * Nl2CT1 lam12n3 ) ( * Nl2CT2 lam12n4 ) ( * Nl2CT3 lam12n5 ) ( - 1 ) ) 0 ) ( = ( + ( * ( - 1 ) lam12n0 ) ( * ( - 1 ) lam12n1 ) ( * Nl2main_i1 lam12n3 ) ( * Nl2main_i2 lam12n4 ) ( * Nl2main_i3 lam12n5 ) ) 0 ) ( = ( + ( * ( - 1 ) lam12n0 ) ( * 1 lam12n1 ) ( * 1 lam12n2 ) ( * Nl2main_range1 lam12n3 ) ( * Nl2main_range2 lam12n4 ) ( * Nl2main_range3 lam12n5 ) ) 0 ) ) ( and ( >= lam13n0 0 ) ( >= lam13n1 0 ) ( >= lam13n2 0 ) ( >= lam13n3 0 ) ( >= lam13n4 0 ) ( >= lam13n5 0 ) ( > ( + ( * 5 lam13n0 ) ( * 5 lam13n1 ) ( * 4 lam13n2 ) ( * Nl2CT1 lam13n3 ) ( * Nl2CT2 lam13n4 ) ( * Nl2CT3 lam13n5 ) ( - 1 ) ) 0 ) ( = ( + ( * 1 lam13n0 ) ( * ( - 1 ) lam13n1 ) ( * Nl2main_i1 lam13n3 ) ( * Nl2main_i2 lam13n4 ) ( * Nl2main_i3 lam13n5 ) ) 0 ) ( = ( + ( * ( - 1 ) lam13n0 ) ( * ( - 1 ) lam13n1 ) ( * ( - 1 ) lam13n2 ) ( * Nl2main_range1 lam13n3 ) ( * Nl2main_range2 lam13n4 ) ( * Nl2main_range3 lam13n5 ) ) 0 ) ) ))
(assert ( and ( and ( <= ( + Nl2CT1 ( * Nl2main_i1 FV_main_i_2 ) ( * Nl2main_range1 FV_main_range_2 ) ) 0 ) ( <= ( + Nl2CT2 ( * Nl2main_i2 FV_main_i_2 ) ( * Nl2main_range2 FV_main_range_2 ) ) 0 ) ( <= ( + Nl2CT3 ( * Nl2main_i3 FV_main_i_2 ) ( * Nl2main_range3 FV_main_range_2 ) ) 0 ) ) ( or ( and ( <= ( + ( * ( - 1 ) FV_main_i_2 ) ( * ( - 1 ) FV_main_range_2 ) ) 0 ) ( <= ( + 5 FV_main_i_2 ( * ( - 1 ) FV_main_range_2 ) ) 0 ) ( <= ( + 4 ( * ( - 1 ) FV_main_range_2 ) ) 0 ) ( <= ( + ( - 4 ) FV_main_i_2 FV_main_range_2 ) 0 ) ) ( and ( <= ( + FV_main_i_2 ( * ( - 1 ) FV_main_range_2 ) ) 0 ) ( <= ( + ( * ( - 1 ) FV_main_i_2 ) ( * ( - 1 ) FV_main_range_2 ) ) 0 ) ( <= ( + 4 ( * ( - 1 ) FV_main_range_2 ) ) 0 ) ( <= ( + ( - 4 ) ( * ( - 1 ) FV_main_i_2 ) FV_main_range_2 ) 0 ) ) ( and ( <= ( + FV_main_i_2 ( * ( - 1 ) FV_main_range_2 ) ) 0 ) ( <= ( + ( * ( - 1 ) FV_main_i_2 ) ( * ( - 1 ) FV_main_range_2 ) ) 0 ) ( <= ( + ( - 3 ) FV_main_range_2 ) 0 ) ) ) ))
(assert ( and ( and ( <= ( + Nl2CT1 ( * Nl2main_i1 FV_main_i_2 ) ( * Nl2main_range1 FV_main_range_2 ) ) 0 ) ( <= ( + Nl2CT2 ( * Nl2main_i2 FV_main_i_2 ) ( * Nl2main_range2 FV_main_range_2 ) ) 0 ) ( <= ( + Nl2CT3 ( * Nl2main_i3 FV_main_i_2 ) ( * Nl2main_range3 FV_main_range_2 ) ) 0 ) ) ( and ( <= ( + FV_main_i_2 ( * ( - 1 ) FV_main_range_2 ) ) 0 ) ( <= ( + ( * ( - 1 ) FV_main_i_2 ) ( * ( - 1 ) FV_main_range_2 ) ) 0 ) ( <= ( + ( - 3 ) FV_main_range_2 ) 0 ) ) ))
(check-sat)
(exit)
